
 102   30
  10   10   10   10   10   10   10   10   10   10   10   10   10   10   10   10   10   10   10   10   10   10   10   10   10   10   10   10   10   10

   0   0   0   0   0   0   0   0   0   0   0   0   0   0   0   0   0   0   0   0   0   0   0   0   0   0   0   0   0   0   0  26 2 3 4 5 6 7 8 9 11 12 13 14 16 17 18 19 20 22 27 28 30 31 32 34 36 43 
   7   0   0   0   0   0   0   2   0   0   1   0   0   0   0   0   0   0   0   0   0   0   0   0   0   0   0   1   0   0   0  12 64 61 57 56 54 49 44 41 38 35 33 10 
   7   0   0   1   0   0   0   0   0   0   3   0   0   0   0   0   0   0   0   0   0   0   0   0   0   0   4   7   0   0   0  14 67 66 64 58 55 48 44 40 38 37 33 23 21 15 
   8   0   0   0   0   0   3   2   0   0   0   0   0   0   0   0   1   1   0   0   0   0   0   0   0   0   0   0   4   5   0  10 96 68 66 60 54 52 42 33 26 24 
   4   0   0   0   0   0   3   0   0   0   0   0   0   0   0   1   0   0   1   0   0   0   0   0   0   0   8   0   0   0   0  17 101 72 66 65 64 63 62 59 58 57 54 53 50 45 44 42 29 
   9   0   0   5   0   0   0   0   0   0   0   0   0   0   0   0   6   0   0   0   0   0   0   0   0   0   0   8   0   0   0  14 101 100 97 73 63 59 57 55 54 49 46 39 38 25 
  10   1   0   0   0   0   0   0   0   0   0   0   0   0   0   0   0   0   0   0   0   0   0   0   0   0   0   7   0   0   0  18 101 100 98 96 73 72 65 63 59 58 57 55 52 46 45 42 41 38 
   8   4   0   5   0   0   0   0   0   0   0   0   0   0   0  10   0   0   0   0   0   0   0   0   0   0   0   0   0   0   0  19 101 100 98 97 96 90 70 67 65 64 63 61 60 54 53 52 45 41 38 
   8   0   0   0   2   0   0   0   0   0   0   0   0   0   0   0   6   0   0   0   0   0   0   0   0   1   0   0   0   0   0  12 71 65 64 63 60 59 58 53 45 44 38 29 
   7   0   0   0   4   1   0   0   0   0   0   0   0   1   0   4   0   0   5   0   1   1   0   0   0   0   0   0   0   0   0  10 101 96 72 70 67 59 55 47 40 23 
   6   0   0   0   0   4   0   0   0   0   0   2   2   0   0   0   0   0   0   2   0   0   0   0   0   0   4   4   0   0   4  14 100 98 90 73 71 67 65 64 58 57 52 45 38 35 
   5   0   0   7   0   0   0   0   1   0   0   0   0   0   0   5   9   0   0   0   0   4   0   0   0   0   0   0   0   4   0  13 99 96 94 82 73 72 68 65 63 62 59 52 26 
   3   0   0   0   7   0   0   0   0   0   0   0   0   0   0   0   0   4   0   0   3   0   0   0   0   0   0   0   0   0   3  15 99 72 71 65 64 63 62 59 58 54 53 52 51 46 44 
   3   0   0   0   0   0   0   0   0   0   0   0   0   0   0   0   7   7   0   7   0   0   0   0   1   0   5   0   0   5   5  10 97 96 72 64 57 47 46 45 41 35 
   8   0   0   0   0   0   0   0   0   0   0   0   3   0   0   7   0   0   6   0   0   0   2   0   0   0   0   0   0   0  10  15 100 98 97 96 94 90 72 62 60 59 57 53 52 45 41 
   8   0   0   0   0   6   0   0   0   2   0   0   0   0   0   0   0   0   0   0   0   0   0   0   0   0   0   0   0   0   0  14 98 97 96 92 90 72 65 63 62 61 57 52 46 45 
   5   0   0   7   0   0   0   0   0   0   6   0   0   0   0   0   0   0   0   0   0   0   0   0   0   0   0   0   0   0   0  13 93 92 91 73 72 71 65 63 61 54 49 46 40 
   6   0   0   0   0   0   0   9   0   0   0   6   0   0   0   0   0   0   0   0   0   0   0   0   0   0   0   0   0   5   0  19 101 100 99 98 97 96 93 92 85 80 77 71 67 65 64 60 59 55 47 
   4   0   5   0   0   0   0   0   5   0   0   0   0   0   0   6   0   0   0   0   4   0   0   0   0   5   0   0   0   0   0  16 101 97 96 94 93 92 76 75 73 72 71 69 66 64 60 39 
   2   0   0   0   0   0   0   0   0   0   0   0   0   0   0   7   0   0   0   0   0   0   0   0   0   0   0   0   0   0   0  16 101 98 96 95 94 91 90 83 72 69 68 64 63 61 59 41 
   2   9   0   7   0   0   0   8   0   0   5   0   0   0   0   0   0   0   0   0   0   0   0   0   0   0   0   0   0   0   0  14 100 97 96 94 91 90 87 86 69 65 62 53 45 41 
   4   0   0   0   8   0   5   0   9   0   9   4   0   0   0   0   0   0   0   0   0   0   0   0   9   0   0   0   3   0   0  16 100 98 95 92 90 89 88 82 81 76 70 63 62 57 52 49 
   1   0   0   0   0   0   0   0   0   6   0   0   0   0   0   0   0   0   0   0   0   0   0   0   0   0  10   0   0   0   0  12 100 99 98 97 94 92 90 71 63 62 52 45 
   6   0   0   0   0   0   0   0   0   0   0   0   0   0   0   0   0   0   0   0   0   0   6   0   0   8   0   0   0   0   0  12 100 95 91 90 78 72 65 63 59 58 57 41 
   6   0   0   0   0   4   0   0   0   0   7   0   0   0   0   0   0   0   0   0   0   0   0   0   7   0   0   0   0   0   0  12 95 93 91 86 72 71 70 69 66 64 56 40 
   3   0   0   0   0   0   0   0   0   0   0   0   0   0   0   0   0   0   0   0   0   0   0   0   0   0   0   0   0   0   4   7 100 84 80 64 58 46 39 
   2   0   0   9   0   8   0   5   7   0   0   0   0   0   1   0   0   0   0   6   0   0   0   0   0   0   9   0   0   0   0   7 99 94 84 66 46 45 39 
  10   0   0   0   0   0   0   0   0   0   0   0   0   0   0   0   0   0   5   0   0   0   6   1   4   0   0   0   0   0   6  15 101 96 93 91 90 87 86 85 84 73 69 64 63 62 45 
   5   7   0   0   0   0   0   5   0   0   0   0   0   0   0   0   0   0   0   0   0   0   0   0   0   0   8   0   0   0   5  13 100 99 98 97 92 90 89 80 79 74 68 52 46 
   4   0   0   0   0   0   0   0   0   0   0   0   0   0   0   0   0   0   0   3   0   0   0   0   0   6   0   6   0  10   0  14 96 94 93 92 89 88 85 84 82 80 68 63 62 46 
   9   0   0   0   0   0   0   0   0   0   5   0   0   0   0   0   0   0   0   4   0   0   0   0   0   0   0   0   0   5   0  16 99 95 94 92 91 90 86 85 84 83 82 77 73 64 63 51 
   3   0   4   0   0   0   0   0   0   0   0   0   0   0   0   0   0   0   0   0   0   0   0   0   0   0   0   0   0   0   0  14 100 96 92 90 87 84 80 69 68 66 64 63 62 53 
   8   0   0   0   0   0   0   0   0   0   0   0   0   0   8   0   0   0   0   0   0   0   0   0   0   0   0   0   0   0   0  11 100 95 92 90 88 84 82 80 63 62 46 
   5   0   4   0   0   0   0   4   0   0   0   0   0   0   0   0   0   0   0   0   0   0   0   0   6   0   0   0   7   0   0  10 101 94 90 89 84 73 68 63 62 46 
   4   0   0   7   0   8   0   0   0   0   0   0   0   0   0   0   0   0   0   4   0   0   0   3   0   0   0   0   0   0   0  12 94 91 89 85 84 83 80 70 68 63 62 60 
   6   0   0   0   5   0   0   0  10   0   6   0   0   0   0   0   0  10   0   0   0   5   0   0   0   0   2   0   0   0   0   6 93 92 89 87 71 40 
   9   0   0   0   0   0   0   0   0   0  10   0   0   0   0   0   0   6   0   0   0   0   0   0   0   0   0   6   0   0   0  16 97 94 93 92 91 90 89 87 86 83 79 78 77 76 75 71 
   1   0   0   0   0   0   0   0   0   0   0   0   0   0   7   0   0   0   0   0   0   0   0   0   9   0   5   0   0   3   0  13 95 94 93 91 88 87 85 82 80 78 69 68 62 
   2   0   0   0   0   0   0   0   4   0   0   0   0   0   0   0   0   6   6   6   0   0   0   0   0   0   0   0   0   4   7  14 98 95 91 90 89 88 87 86 85 83 79 77 74 70 
   5   0   0   9   0   7   0   0   0   0   0   0   0   0   0   0   0   0   6   0   0   0   0   0   0   6   0   0   0   0   4   6 90 85 83 78 62 53 
   7   0  10   0   0   0   0   6   0   0   0   0   0   0   0   0   0   0   0   0   0   0   8   0   0   0   0   0   0   0   0  12 99 93 92 89 88 85 84 80 77 76 75 71 
  10   0   0   0   0   8   8   0   0   0   0   0   0   6   0   0   0   6   0   0   0   0   0   0   0   0   0   0   0   5   0  12 99 91 89 88 87 86 81 80 77 76 75 74 
   9   0   0   0   0   0   0   0   5   0   3   0   0   0   0   0   0   0   6   9   5   0   0   0   0   0   0   0  10   0   0  10 101 98 87 86 82 80 78 75 74 68 
   9   0   0   4   0   0   0   4   0   0   0   0   0   0   5   0   0   0   0   0   0   0   0   0   0   0   0   0   0   0   0  10 96 92 91 90 89 82 81 79 75 74 
   7   0   0   0   0   0   0   0   0   0   0   5   0   0   0   4   0   7   0   4   0   0   0   0   0   0   0   0   0   0   5   9 95 88 83 82 81 80 78 77 68 
   2   0   0   0   4   0   0   0   0   7   0   0   0   0   0   5   0   5   0   0   0   0   0   7   0   0   0   0   0   0   0   8 87 86 83 81 76 75 70 69 
   3   0   0   0   7   0   0   0   0   0   0   0   9   0   7   9   0   0   0   0   0   0   0   0   7   0   0   5   0   0   6   8 94 91 90 86 83 78 75 63 
   5   0   0   6   0   0   0   0   0   0   0   0   0   0   0   0   7   0   9   0   0   0   0   0   0  10   0   0   0   0   0   9 89 88 87 84 83 82 80 78 77 
  10   0   0   0   0   0   8   0   0   4   0   0   0   0   0   0   0   0   0   0   0   0   0   0   0   0   0   0   0   0   0   8 96 94 87 80 79 78 77 75 
   9   0   0   0  10   0   0   0   8  10   0   0   0   0   0   0   7   0   0   7   0   0   0   0   0   0   3   0   0   0   0   8 86 85 84 82 81 77 76 75 
   2   0   0   0   0   0   0   0   4   0   0   0   0   0   0   4   0   0   0   0   0   5   0   0   0   0   0   0   5  10   5   6 89 81 80 75 74 68 
   8   0   0   0   0   0   0   0   0   0   0   0   0   0   0   0   0   0   6   0   0   0   0   0   0   8   0   0   0   0   0   6 93 91 87 86 85 84 
   3   0   0   0   0   0   0   0   8  10   0   0  10   0   0   0   0   0   5   0   4   0   0   0   0   0   0   0   0   0   0   6 88 82 81 79 76 74 
   6   0   0   0   0   0   0   0   0   0   0   0   0   0   0   0   0   0   0   0   0   8   0   6   0   0   0   0   4   0   0   6 94 84 83 80 78 76 
   4   0   0   0   0   0   0   0   4   0   0   0   0   9   0   0   0   0   0   0   0   0   0   0   0   0   0   0   0   0   7   6 94 90 89 84 79 75 
   3   0   0   0   3   0   0   0   0   0   0   0   0   0   0   0   0   0   5   0   0   0   0   0   0   0   0   0   0   4   0   6 92 89 85 84 82 74 
   8   0   0   6   0   0   0   0   0   6   0   0   0   0   0   0   0   0   0   0   0   0   0   0   3   0   5   0   0   0   0   4 86 85 83 74 
   9   9   0   0   0   0   0   6   0   0   0   0   0   7   0   0   0   0   0  10   0   0   0   0   0   0   0   4   0   0   0   4 97 93 92 76 
   4   0   0   0   0   0   0   0   0   8   0   0   0   6   0   0   0   0   0   0   0   5   0   0   0   0   0   0   0   0   0   3 87 86 74 
   2   0   0   0   0   0   0   5   0   0   0   0   0   0   0   0   0   0   0   0   0   0   0   0   0   0  10   0   6   0   0   3 88 81 78 
   1   0   0   0   0   0   0   0   0   0   0   0   0   0   0   0   0   0   0   0   0   0   0   0   0   0   0   0   0   0   0   3 89 80 76 
   6   0   0   0   0   0   0   0   0   0   0   0   0   5   0   0   0   0   0   0   7   0  10   0   0   0   6   0   0   0   0   2 77 75 
  10   0   0   0   0   0   0   0   0   0   0   0   0   0   0   0   0   0   0   0   0   0   0   0   0   0   0   0   0   0   0   2 79 74 
   9   0   0   0   0   0   0   0   6   4   0   0   0   0   0   8   0   0   0   0   0   0   0   0   0   0   0   0   0   0   0   2 81 74 
   9   0   0   0   0   0   0   0   0   9   0  10   0   0   0   0   0   0   0   0   0   0   0   0   0   6   0   0   5   0   0   2 79 74 
   9   0   0   0   0   0   0   5   6   0   0   0   0   0   0   0   8   0   9   0   0   0   0   0   0   0   0   0   0   0   0   2 88 85 
  10   9   0   0   0   0   0   0   0   0   0   0   0   0   0   0   0   0   6   0   0   0   0   0   5   0   0   0   0   0   6   2 75 74 
   2   0   0   0   0   0   0   0   0   0   0   0   0   7   0   0   0   0   0   0   0   0   0   0   0   0   0   0   0   6   0   1 76 
   9   6   0   0   0   0   0   0   0   0   0   0   0   1   0   0   0   0   0   9   9   0   0   5   0   0   0   0   0   2   0   1 77 
   9   0   0   0   0   0   0   0   0   0   0   0   0   0   0   0   0   0   0   0   8   8   0   0   0   0   0   0   0   7   0   1 78 
   7   0   0   0   0   0   0   0   0   0   0   0   0   0   4   0   0   0   0   0   0   0   5   0   0   6   0   8   0   0   0   1 82 
  10   0   0   0   0   6   0   0   0   0   0   0   0   0   0   0   0   0   5   0   0   0   0   0   0   0   0   0   0   0   0   1 84 
   2   0   0   0   0   0   0   0   0   0   0   0   0   0   0   0   0   0   0   0   0   0   0   0   0   0   0   0   0   0   0   1 80 
   2   0   0   3   0   0   0   0   0   0   0   0   0   0   9   5   7   0   0   0   0   9   0   0   8   0   0   0   0   0   8   1 102
  10   0   0   0   0   0   0   0   0   0   0   0   0   0   0   0   0   0   0   0   0   0   0   0   6   0   0   0   0   5   0   1 102
   4   0   0   0   0   9   0  10   0   0   0   0   0   0   0   0   0   0   0   0   7   0   0   6   0   0   0   0   0   0   0   1 102
   4   0   0   0   0   0   0   0   0   0   0   0   0   0   0   0   0  10   0   3  10   0   0   0   0   0   0   0   0   0   0   1 102
  10   0   0   0   5   0   0   0   0   0   0   0   0   0   0   0   0   0   0   8   0   0   0   0   0   0   0   0   0   0   0   1 102
   7   0   0   0   0   6   0   7   0   0   7   0   0   0   0   6   0   0   8   0   0   0   0   7   5   0   0   0   0   0   0   1 102
  10   0   0   0   0   8   0   0   0   0   0  10   0   9   8   0   0   0   0   0   0   0   0   9   0   5   0   0   0   0   0   1 102
   9   3   0   0   0   0   0   8   0   0   0   0   0   0   0   0   0   6   0   0   0   0   0   0   0   0   0   0   0   0   0   1 102
  10   0   0   0   9   0   0   0   0   0   0   0   0   0   0   0   0   0   0   0   0   0   0   6   0   0   0   0   0   0  10   1 102
   5   0   0   0   0   0   0   0   0   0   9   0   0   0   0   0   0   3   0   0   0   0   0   0   8   0   0   0   0   0   0   1 102
   7   0   7   0   0   8   0   7   0   0   0   0   0   0   0   0   0   0   9   0   0   0   0   0   0   0   0   0  10   9  10   1 102
   7   0   0   0   0   0   0   0   0   3   0   0   0   0   0   8   0   0   0   0   0   0   0   0   0   0   0   0   0  10   0   1 102
  10   0   0   0   0   0  10   0   7   0   8   0   8   0   0   8   4   8   0   0   0   0   0   0   0   9   0   0   0   0   0   1 102
   5   0   0   0   8   5   0   8   0   0   0   0   4   0   0   0   6   0   0   0   0   6   0   0   0   5   0   8   0   0   0   1 102
  10   0   0   0   0   0   0   0   6   0   0   0   0   0   0   0   0   5   0   0   0   0   0   0   6   0   0   0   0   6   0   1 102
   9   0   0   0   0   0   0   0   0   6   0   0   0   8   0   0   0   0   0   8   0   0   0   0   0   0   0   0   0   0   0   1 102
   6   0   0   0   0   5   0   0   0   6   0   0   0   0   0   0   0   0   0   0   0   0   0   0   0   0   0   7   0   0   0   1 102
  10   0   0   0   0   0   0   0   0   0   0   0   0   7   4   0   0   0   0   0   0   0   0   0   0   0   0   0   0   0   0   1 102
   5   0   0   0   0   0   0   0   0   0   0   5   0   0   0   0   4   0   0   0   0   0   0   0   0   0   0   0   0   0   0   1 102
   1   0   0   0   0   0   0   0   0   0   0   0   0   0   0   0   0   0   0   0   0   0   0  10   0   0   8   0   0   0   0   1 102
   1   0   6   0   0   5   0   0   0   0   0   0   0   0   7   0   0   0   0   0   0   7   0   0   0   0   0   0   0   0   0   1 102
   4   0   0   0   0   0   0   0   0   5   5   0   0   6   0   0   0   0   0   0   0   0   0   0   0   0   5   6   0   0   0   1 102
   9   0   0   0   0   5   0   0   0   6   0   0   0   0   0   0   0   0   0   6   0   7   5   0   0   0   0   8   0   8   0   1 102
   1   0   0   0   0   0   0   0   0   0   0   0   0   0   0   0   0   0   0   0   0   7   0   0   0   6   0   0   0   0   3   1 102
   3   0   0   0   0   0   0   0   0   0   0   0   0   0   0   4   0   0   5   0   0   0   0   0   0   6   0   0   0   7   0   1 102
   6   0   0   0   0   0   0   0   0   0   0   0   6   0   0   7   0   6   0   0   0   0   0   0   0   0   0   5   0   0   0   1 102
   6   0   0   0   0   0   5   0   0   4   0   0   0   0   0   0   0   0   0   0   0   0   0   0   0   3   0   0   0   0   0   1 102
   4   0   0   8   0   5   0   7   0   0   0   0   0   0   0   0   0   0   0   0   8   0   0   0   0   0   4   0   0   6   0   1 102
   0   0   0   0   0   0   0   0   0   0   0   0   0   0   0   0   0   0   0   0   0   0   0   0   0   0   0   0   0   0   0   0 
